(set-option :produce-models true)
(set-logic QF_UF)
(declare-fun p41() Bool)
(declare-fun p0() Bool)
(declare-fun p65() Bool)
(declare-fun p53() Bool)
(declare-fun p63() Bool)
(declare-fun p50() Bool)
(declare-fun p76() Bool)
(declare-fun p43() Bool)
(declare-fun p33() Bool)
(declare-fun p45() Bool)
(declare-fun p86() Bool)
(declare-fun p81() Bool)
(declare-fun p31() Bool)
(declare-fun p60() Bool)
(declare-fun p14() Bool)
(declare-fun p88() Bool)
(declare-fun p84() Bool)
(declare-fun p56() Bool)
(declare-fun p39() Bool)
(declare-fun p75() Bool)
(declare-fun p44() Bool)
(declare-fun p6() Bool)
(declare-fun p32() Bool)
(declare-fun p5() Bool)
(declare-fun p42() Bool)
(declare-fun p49() Bool)
(declare-fun p4() Bool)
(declare-fun p29() Bool)
(declare-fun p26() Bool)
(declare-fun p69() Bool)
(declare-fun p11() Bool)
(declare-fun p25() Bool)
(declare-fun p61() Bool)
(declare-fun p9() Bool)
(declare-fun p30() Bool)
(declare-fun p51() Bool)
(declare-fun p78() Bool)
(declare-fun p83() Bool)
(declare-fun p18() Bool)
(declare-fun p38() Bool)
(declare-fun p79() Bool)
(declare-fun p59() Bool)
(declare-fun p67() Bool)
(declare-fun p15() Bool)
(declare-fun p58() Bool)
(declare-fun p37() Bool)
(declare-fun p40() Bool)
(declare-fun p46() Bool)
(declare-fun p48() Bool)
(declare-fun p7() Bool)
(declare-fun p16() Bool)
(declare-fun p70() Bool)
(declare-fun p66() Bool)
(declare-fun p80() Bool)
(declare-fun p17() Bool)
(declare-fun p23() Bool)
(declare-fun p71() Bool)
(declare-fun p54() Bool)
(declare-fun p62() Bool)
(declare-fun p8() Bool)
(declare-fun p2() Bool)
(declare-fun p73() Bool)
(declare-fun p47() Bool)
(declare-fun p72() Bool)
(declare-fun p85() Bool)
(declare-fun p27() Bool)
(declare-fun p64() Bool)
(declare-fun p10() Bool)
(declare-fun p52() Bool)
(declare-fun p24() Bool)
(declare-fun p36() Bool)
(declare-fun p1() Bool)
(declare-fun p74() Bool)
(declare-fun p57() Bool)
(declare-fun p3() Bool)
(declare-fun p87() Bool)
(declare-fun p21() Bool)
(declare-fun p22() Bool)
(declare-fun p55() Bool)
(declare-fun p89() Bool)
(declare-fun p20() Bool)
(declare-fun p77() Bool)
(declare-fun p35() Bool)
(declare-fun p12() Bool)
(declare-fun p19() Bool)
(declare-fun p68() Bool)
(declare-fun p13() Bool)
(declare-fun p28() Bool)
(declare-fun p34() Bool)
(declare-fun p82() Bool)
(assert
(and (or p41 (not p0) (not p65)) (or (not p53) p63 p50) (or p76 p43 p33) (or (not p45) (not p86) p81) (or p31 (not p86) p60) (or (not p14) (not p88) (not p84)) (or p56 (not p39) p75) (or (not p44) (not p6) (not p53)) (or (not p41) (not p32) (not p5)) (or p42 p63 (not p49)) (or p81 p4 (not p29)) (or (not p26) p69 (not p11)) (or (not p25) (not p61) p5) (or (not p9) p30 p51) (or p78 p65 p83) (or p42 p18 p33) (or (not p32) p45 p38) (or (not p79) (not p53) p59) (or p31 (not p11) p67) (or (not p0) (not p15) p58) (or (not p37) (not p40) p46) (or (not p48) p58 p31) (or p7 (not p88) p60) (or p16 (not p70) (not p66)) (or (not p6) p30 (not p80)) (or p88 (not p0) p17) (or p23 p71 (not p84)) (or p42 (not p54) (not p62)) (or (not p8) (not p71) (not p62)) (or (not p88) p63 (not p70)) (or (not p18) (not p58) (not p38)) (or (not p81) (not p81) (not p38)) (or p40 (not p2) p73) (or (not p45) (not p69) p47) (or (not p72) (not p47) (not p67)) (or p59 p71 p85) (or (not p73) (not p27) (not p7)) (or p38 (not p16) (not p5)) (or p64 p30 (not p65)) (or (not p8) (not p10) (not p26)) (or p10 (not p59) p9) (or (not p50) (not p83) (not p26)) (or (not p52) (not p16) p60) (or p24 p36 (not p65)) (or p67 p10 (not p60)) (or (not p37) p11 (not p66)) (or (not p15) (not p65) (not p1)) (or (not p37) (not p72) p29) (or p81 p6 p74) (or (not p81) p60 (not p74)) (or (not p64) p42 (not p24)) (or (not p56) p18 (not p50)) (or p56 p41 (not p44)) (or (not p57) (not p84) p56) (or p64 (not p15) (not p41)) (or (not p26) p73 (not p3)) (or p87 p37 (not p31)) (or (not p42) (not p59) (not p84)) (or (not p21) (not p27) p32) (or (not p43) (not p17) (not p44)) (or (not p38) (not p23) p22) (or p66 (not p69) p51) (or (not p72) (not p4) p18) (or (not p53) (not p51) p55) (or p70 (not p40) p11) (or p36 p0 p56) (or (not p89) p20 p64) (or p6 (not p80) (not p78)) (or p4 p70 (not p26)) (or (not p80) (not p17) (not p14)) (or (not p39) p56 (not p43)) (or (not p15) p42 (not p42)) (or (not p67) p57 (not p84)) (or (not p49) p21 (not p81)) (or p72 (not p76) (not p52)) (or (not p64) p77 p62) (or p39 p51 p52) (or p35 p57 p79) (or p53 (not p17) p10) (or p51 p60 (not p27)) (or p57 p37 (not p24)) (or p0 p31 p81) (or (not p12) p79 (not p19)) (or p68 p40 p56) (or (not p83) p79 (not p41)) (or (not p66) p45 p61) (or p55 p85 p84) (or p13 p71 (not p36)) (or (not p26) p7 (not p25)) (or p28 p60 (not p21)) (or p23 p53 (not p63)) (or p47 p31 p53) (or p36 (not p47) p71) (or p42 (not p50) p38) (or (not p73) (not p78) p35) (or p75 p34 p18) (or (not p68) (not p7) p30) (or (not p32) (not p37) (not p15)) (or (not p56) (not p75) p19) (or p52 (not p21) p9) (or (not p71) p49 (not p3)) (or p72 (not p29) (not p75)) (or p84 (not p85) (not p63)) (or p49 p7 p46) (or (not p4) p89 p67) (or p44 (not p45) p36) (or (not p59) (not p44) (not p47)) (or p66 (not p61) p8) (or (not p55) p60 (not p17)) (or (not p23) (not p64) (not p50)) (or p81 (not p47) p87) (or (not p89) (not p39) (not p54)) (or (not p78) p53 (not p57)) (or p64 (not p77) (not p30)) (or (not p45) (not p5) (not p71)) (or p49 p30 (not p65)) (or (not p77) (not p44) (not p68)) (or (not p1) p64 p49) (or p51 (not p16) (not p13)) (or (not p25) (not p44) (not p7)) (or p16 (not p87) (not p34)) (or (not p5) p20 p30) (or p3 (not p14) p22) (or p58 p0 (not p30)) (or (not p7) p66 p13) (or p55 (not p34) (not p59)) (or p31 (not p75) (not p23)) (or p31 (not p85) (not p44)) (or p46 (not p59) (not p14)) (or (not p72) (not p47) (not p85)) (or p25 p15 p77) (or (not p71) p59 (not p8)) (or (not p60) p37 p43) (or p49 p43 p80) (or p20 (not p8) (not p63)) (or (not p13) p49 p2) (or (not p20) (not p28) p88) (or p46 (not p75) p49) (or p13 p28 p76) (or (not p18) (not p83) (not p84)) (or (not p37) p9 (not p66)) (or (not p38) p47 (not p72)) (or p66 (not p67) (not p38)) (or (not p21) (not p15) (not p79)) (or (not p66) (not p72) (not p31)) (or p40 (not p41) p36) (or (not p27) (not p71) p42) (or p67 p7 (not p66)) (or (not p80) (not p33) p81) (or p70 (not p51) p80) (or p70 p38 (not p66)) (or (not p73) (not p58) p4) (or p71 (not p12) p0) (or (not p56) p15 (not p73)) (or p19 p88 p86) (or (not p39) p83 (not p7)) (or p40 p68 (not p45)) (or (not p89) p37 p76) (or (not p5) p24 p5) (or p48 (not p88) (not p61)) (or (not p32) p86 p7) (or (not p25) (not p68) (not p81)) (or (not p19) p68 (not p65)) (or p19 p28 p74) (or (not p57) p56 p63) (or (not p80) (not p53) p65) (or p50 p40 (not p54)) (or p64 p8 p70) (or (not p26) (not p68) (not p35)) (or (not p70) p39 (not p36)) (or (not p11) p49 (not p5)) (or (not p73) (not p80) p73) (or (not p23) p52 (not p53)) (or (not p36) p62 (not p42)) (or (not p57) p45 (not p34)) (or (not p9) p8 (not p26)) (or (not p78) p70 (not p37)) (or p78 (not p27) p46) (or p16 (not p87) (not p69)) (or p57 p8 p79) (or (not p74) p54 p43) (or (not p29) (not p44) (not p17)) (or p37 p47 (not p48)) (or p86 p83 p79) (or (not p34) (not p37) (not p6)) (or (not p80) (not p68) (not p21)) (or (not p1) (not p53) p8) (or (not p72) p18 p72) (or p3 (not p87) (not p62)) (or (not p75) p0 (not p18)) (or p36 (not p21) (not p23)) (or (not p69) (not p1) (not p7)) (or (not p83) (not p61) p0) (or (not p66) (not p12) p76) (or (not p16) p52 p46) (or (not p84) p79 (not p36)) (or (not p26) p34 (not p15)) (or (not p0) (not p5) (not p89)) (or (not p75) p68 (not p22)) (or p32 p31 p7) (or (not p4) (not p10) (not p8)) (or p48 p20 (not p8)) (or (not p4) p84 p0) (or p71 (not p63) p19) (or p9 p25 (not p19)) (or (not p63) (not p26) p89) (or p12 p41 (not p23)) (or (not p12) (not p4) (not p1)) (or p57 p54 p66) (or p9 (not p60) (not p79)) (or (not p40) p58 p36) (or (not p11) (not p54) p81) (or (not p26) (not p4) p53) (or (not p50) (not p4) p49) (or (not p73) p17 p41) (or (not p49) (not p69) (not p15)) (or (not p8) (not p26) (not p80)) (or p64 (not p44) p31) (or (not p29) p21 (not p75)) (or p69 (not p2) p3) (or p28 p71 p8) (or p3 p25 (not p75)) (or p8 p6 p69) (or (not p7) (not p42) (not p64)) (or p64 (not p88) (not p4)) (or (not p32) (not p85) (not p87)) (or (not p24) (not p32) p51) (or p41 p27 (not p13)) (or (not p38) (not p49) p24) (or p14 (not p30) p74) (or (not p49) (not p72) (not p50)) (or (not p88) (not p26) p69) (or (not p56) p58 p62) (or (not p45) p18 (not p61)) (or (not p88) (not p76) (not p82)) (or (not p64) (not p6) (not p11)) (or p38 p14 (not p83)) (or (not p39) (not p21) p70) (or (not p5) (not p66) p3) (or (not p41) p71 (not p22)) (or (not p51) (not p4) p51) (or (not p15) p13 p69) (or (not p7) p15 (not p10)) (or p83 (not p87) p11) (or (not p67) p79 p33) (or p88 p70 p16) (or (not p77) (not p66) (not p4)) (or (not p9) p81 (not p70)) (or p17 (not p65) (not p64)) (or (not p24) (not p37) (not p1)) (or p2 (not p29) p54) (or p6 p16 (not p79)) (or (not p70) p78 p52) (or (not p68) p6 p55) (or (not p67) (not p55) (not p19)) (or p57 (not p59) p50) (or (not p11) p81 (not p33)) (or p53 p0 (not p6)) (or (not p76) p89 p6) (or (not p5) p15 p77) (or (not p84) p1 (not p8)) (or (not p22) p50 (not p71)) (or (not p37) p75 (not p64)) (or p83 p86 p39) (or p64 p5 (not p24)) (or p16 (not p49) (not p25)) (or (not p14) p37 (not p31)) (or (not p15) (not p66) p80) (or p36 (not p19) p73) (or (not p30) (not p67) p42) (or p1 p76 p22) (or (not p69) (not p82) p88) (or p70 p39 (not p63)) (or (not p66) (not p81) (not p77)) (or (not p47) (not p88) (not p6)) (or (not p72) (not p30) p10) (or p49 (not p3) (not p43)) (or p4 (not p75) p75) (or p11 p0 p87) (or (not p12) (not p19) p79) (or p51 p42 (not p49)) (or p71 p72 (not p68)) (or p48 (not p58) (not p84)) (or p46 p84 p50) (or (not p5) p74 p29) (or (not p4) p13 p2) (or p24 (not p80) (not p74)) (or p35 (not p85) (not p8)) (or p29 p32 (not p55)) (or p54 p43 p60) (or p32 p56 p15) (or (not p23) p0 p78) (or (not p4) (not p32) (not p49)) (or (not p61) p33 (not p1)) (or p1 p14 p69) (or (not p4) p44 p45) (or (not p86) p83 p30) (or (not p35) p76 (not p56)) (or (not p61) (not p5) p19) (or (not p26) p10 p32) (or p57 p28 p48) (or (not p51) p33 p61) (or (not p0) p33 (not p83)) (or (not p89) p33 (not p33)) (or p89 (not p71) p11) (or (not p75) (not p73) (not p11)) (or p26 p0 (not p11)) (or (not p45) p50 (not p64)) (or (not p52) p50 (not p36)) (or (not p62) p10 (not p74)) (or (not p79) (not p45) (not p55)) (or p18 p37 (not p64)) (or (not p25) p45 p55) (or (not p18) (not p10) (not p59)) (or (not p64) (not p51) (not p21)) (or (not p57) (not p19) p14) (or p72 p83 p3) (or (not p80) p42 (not p2)) (or p73 (not p73) p72) (or p35 p70 p33) (or p11 p11 (not p71)) (or p6 p0 p73) (or p29 (not p89) p61) (or p31 (not p30) p84) (or (not p83) (not p78) (not p83)) (or (not p65) p37 p67) (or (not p68) (not p12) p65) (or p39 (not p80) (not p1)) (or (not p26) p69 (not p65)) (or (not p71) (not p11) p14) (or p59 p50 (not p53)) (or (not p35) p35 (not p53)) (or (not p24) p73 (not p86)) (or p36 (not p87) p48) (or p68 p14 p27) (or (not p21) p30 (not p13)) (or p59 (not p53) p41) (or (not p56) p27 (not p1)) (or (not p56) p45 p89) (or (not p27) p34 (not p29)) (or (not p59) (not p70) (not p15)) (or (not p58) p28 p49) (or (not p22) p67 (not p82)) (or p36 p59 (not p3)) (or (not p2) (not p31) (not p74)) (or p60 p85 p62) (or p82 p77 p24) (or (not p65) p19 (not p76)) (or p49 (not p48) p52) (or (not p87) p22 p74) (or (not p16) (not p8) (not p64)) (or p82 p24 p51) (or p43 (not p59) p35) (or (not p24) (not p74) p67) (or (not p27) (not p32) p12) (or p73 p20 p30) (or p59 (not p21) p10) (or (not p14) (not p89) (not p48)) (or p88 (not p22) (not p28)) (or p44 p60 (not p3)) (or (not p7) p50 p85) (or (not p0) (not p34) p23) (or p3 p77 p24) (or p30 p8 (not p18)) (or (not p21) (not p66) (not p22)) (or (not p73) (not p89) (not p48)) (or (not p44) (not p85) (not p16)) (or p71 p13 p7) (or p7 p9 (not p61)) (or p6 (not p57) p11) (or (not p59) p13 p78) (or p77 (not p31) p57) (or (not p18) (not p75) (not p12)) (or (not p18) (not p56) (not p69)) (or (not p47) (not p32) p16) (or (not p38) p65 p21) (or (not p36) (not p37) p58) (or p14 (not p24) (not p64)) (or (not p83) p14 p47) (or p61 p6 (not p69)) (or p52 (not p72) p53) (or p63 (not p12) (not p12)) (or p3 (not p52) (not p33)) (or p55 p53 (not p71)) (or (not p37) p14 p39) (or (not p39) p8 (not p57)) (or p40 (not p28) p58) (or (not p41) (not p87) (not p82)) (or (not p34) p53 p76) (or p54 (not p61) p28) (or (not p80) (not p5) (not p82)) (or p45 (not p27) (not p31)) (or p48 p51 (not p52)) (or p72 (not p21) p15) (or (not p25) (not p53) (not p19)) (or (not p4) (not p9) (not p21)) (or (not p20) (not p33) (not p26)) (or (not p76) (not p7) p72) (or p48 p14 (not p72)) (or p68 (not p2) (not p41)) (or p83 (not p38) p21) (or (not p31) p40 p63) (or (not p89) (not p16) p49) (or p42 (not p31) p79) (or p34 p75 p72) (or p63 p88 (not p43)) (or (not p70) (not p43) p39) (or p50 (not p80) (not p16)) (or (not p68) p4 p9) (or (not p68) (not p16) (not p7)) (or (not p59) (not p70) p37) (or (not p41) (not p70) p8) (or (not p54) (not p39) p67) (or p46 (not p81) p17) (or p0 (not p19) (not p11)) (or p55 (not p53) p54) (or (not p22) (not p80) (not p84)) (or p89 (not p81) p68) (or p18 (not p52) p50) (or p60 p6 (not p22)) (or (not p49) (not p30) (not p7)) (or p28 p87 p30) (or (not p62) p10 (not p7)) (or p33 (not p39) p4) (or p11 (not p48) (not p41)) (or (not p62) (not p27) (not p43)) (or p81 p69 (not p57)) (or (not p19) (not p71) (not p11)) (or (not p43) p45 p45) (or p73 p54 p1) (or p19 p79 p12) (or (not p66) (not p57) (not p69)) (or p13 p19 p71) (or p7 (not p41) p30) (or p23 (not p76) (not p45)) (or (not p77) p31 p15) (or p1 p34 (not p74)) (or p67 p20 (not p45)) (or p31 p30 p49) (or p46 p10 p32) (or (not p18) p75 p5) (or (not p47) (not p61) p54) (or (not p9) (not p73) p24) (or p45 (not p55) (not p22)) (or (not p26) p60 (not p70)) (or (not p87) (not p81) p40) (or p86 p79 (not p29)) (or p87 (not p31) (not p51)))
)
(check-sat)
(get-model)
